<?xml version = "1.0" standalone="yes"?>
<!-- This file has been generated by DOcplex version 2.23.222  -->
<CPLEXSolution version="1.0">
 <header
   problemName="CVRP"
   objectiveValue="14241"
  />
 <variables>
  <variable name="x_0_4" index="3" value="1.00000"/>
  <variable name="x_0_5" index="4" value="1.00000"/>
  <variable name="x_0_9" index="8" value="1.00000"/>
  <variable name="x_0_10" index="9" value="1.00000"/>
  <variable name="x_0_12" index="11" value="1.00000"/>
  <variable name="x_0_13" index="12" value="1.00000"/>
  <variable name="x_0_14" index="13" value="1.00000"/>
  <variable name="x_0_15" index="14" value="1.00000"/>
  <variable name="x_0_17" index="16" value="1.00000"/>
  <variable name="x_0_18" index="17" value="1.00000"/>
  <variable name="x_0_24" index="23" value="1.00000"/>
  <variable name="x_0_25" index="24" value="1.00000"/>
  <variable name="x_1_0" index="25" value="1.00000"/>
  <variable name="x_2_0" index="50" value="1.00000"/>
  <variable name="x_3_20" index="94" value="1.00000"/>
  <variable name="x_4_3" index="103" value="1.00000"/>
  <variable name="x_5_19" index="143" value="1.00000"/>
  <variable name="x_6_21" index="170" value="1.00000"/>
  <variable name="x_7_0" index="175" value="1.00000"/>
  <variable name="x_8_0" index="200" value="1.00000"/>
  <variable name="x_9_6" index="231" value="1.00000"/>
  <variable name="x_10_7" index="257" value="1.00000"/>
  <variable name="x_11_16" index="290" value="1.00000"/>
  <variable name="x_12_8" index="308" value="1.00000"/>
  <variable name="x_13_1" index="326" value="1.00000"/>
  <variable name="x_14_0" index="350" value="1.00000"/>
  <variable name="x_15_0" index="375" value="1.00000"/>
  <variable name="x_16_0" index="400" value="1.00000"/>
  <variable name="x_17_11" index="436" value="1.00000"/>
  <variable name="x_18_22" index="471" value="1.00000"/>
  <variable name="x_19_0" index="475" value="1.00000"/>
  <variable name="x_20_0" index="500" value="1.00000"/>
  <variable name="x_21_0" index="525" value="1.00000"/>
  <variable name="x_22_0" index="550" value="1.00000"/>
  <variable name="x_23_0" index="575" value="1.00000"/>
  <variable name="x_24_2" index="602" value="1.00000"/>
  <variable name="x_25_23" index="648" value="1.00000"/>
  <variable name="u_1" index="650" value="44.00000"/>
  <variable name="u_2" index="651" value="48.00000"/>
  <variable name="u_3" index="652" value="37.00000"/>
  <variable name="u_4" index="653" value="25.00000"/>
  <variable name="u_5" index="654" value="42.00000"/>
  <variable name="u_6" index="655" value="26.00000"/>
  <variable name="u_7" index="656" value="32.00000"/>
  <variable name="u_8" index="657" value="48.00000"/>
  <variable name="u_9" index="658" value="11.00000"/>
  <variable name="u_10" index="659" value="14.00000"/>
  <variable name="u_11" index="660" value="38.00000"/>
  <variable name="u_12" index="661" value="14.00000"/>
  <variable name="u_13" index="662" value="14.00000"/>
  <variable name="u_14" index="663" value="40.00000"/>
  <variable name="u_15" index="664" value="45.00000"/>
  <variable name="u_16" index="665" value="48.00000"/>
  <variable name="u_17" index="666" value="17.00000"/>
  <variable name="u_18" index="667" value="6.00000"/>
  <variable name="u_19" index="668" value="48.00000"/>
  <variable name="u_20" index="669" value="47.00000"/>
  <variable name="u_21" index="670" value="45.00000"/>
  <variable name="u_22" index="671" value="48.00000"/>
  <variable name="u_23" index="672" value="48.00000"/>
  <variable name="u_24" index="673" value="42.00000"/>
  <variable name="u_25" index="674" value="35.00000"/>
 </variables>
</CPLEXSolution>
